;; Declaring variables
(declare-const b1 Int)
(declare-const b2 Int)
(declare-const b3 Int)
(declare-const b4 Int)
(declare-const b5 Int)
(declare-const b6 Int)
(declare-const b7 Int)
(declare-const b8 Int)
(declare-const b9 Int)
(declare-const b10 Int)
(declare-const b11 Int)
(declare-const b12 Int)
(declare-const b13 Int)
(declare-const b14 Int)
(declare-const b15 Int)
(declare-const b16 Int)
(declare-const b17 Int)
(declare-const b18 Int)
(declare-const b19 Int)
(declare-const b20 Int)

;; Every student should pair with one of its perferenced student
(assert-soft (or (= b1 2)))
(assert-soft (or (= b2 7)))
(assert-soft (or (= b3 2)))
(assert-soft (or (= b4 2)))
(assert-soft (or (= b5 2)))
(assert-soft (or (= b6 2)))
(assert-soft (or (= b7 2)))
(assert-soft (or (= b8 2)))
(assert-soft (or (= b9 6)(= b9 10)))
(assert-soft (or (= b10 2)))
(assert-soft (or (= b11 7)(= b11 4)))
(assert-soft (or (= b12 9)(= b12 6)))
(assert-soft (or (= b13 1)))
(assert-soft (or (= b14 5)))
(assert-soft (or (= b15 5)))
(assert-soft (or (= b16 1)))
(assert-soft (or (= b17 4)))
(assert-soft (or (= b18 13)))
(assert-soft (or (= b19 14)))
(assert-soft (or (= b20 7)(= b20 8)))

;; Ensures the remaining student pairs up
(assert (or (= b1 1)(= b1 2)(= b1 3)(= b1 4)(= b1 5)(= b1 6)(= b1 7)(= b1 8)(= b1 9)(= b1 10)(= b1 11)(= b1 12)(= b1 13)(= b1 14)(= b1 15)(= b1 16)(= b1 17)(= b1 18)(= b1 19)(= b1 20)))
(assert (or (= b2 1)(= b2 2)(= b2 3)(= b2 4)(= b2 5)(= b2 6)(= b2 7)(= b2 8)(= b2 9)(= b2 10)(= b2 11)(= b2 12)(= b2 13)(= b2 14)(= b2 15)(= b2 16)(= b2 17)(= b2 18)(= b2 19)(= b2 20)))
(assert (or (= b3 1)(= b3 2)(= b3 3)(= b3 4)(= b3 5)(= b3 6)(= b3 7)(= b3 8)(= b3 9)(= b3 10)(= b3 11)(= b3 12)(= b3 13)(= b3 14)(= b3 15)(= b3 16)(= b3 17)(= b3 18)(= b3 19)(= b3 20)))
(assert (or (= b4 1)(= b4 2)(= b4 3)(= b4 4)(= b4 5)(= b4 6)(= b4 7)(= b4 8)(= b4 9)(= b4 10)(= b4 11)(= b4 12)(= b4 13)(= b4 14)(= b4 15)(= b4 16)(= b4 17)(= b4 18)(= b4 19)(= b4 20)))
(assert (or (= b5 1)(= b5 2)(= b5 3)(= b5 4)(= b5 5)(= b5 6)(= b5 7)(= b5 8)(= b5 9)(= b5 10)(= b5 11)(= b5 12)(= b5 13)(= b5 14)(= b5 15)(= b5 16)(= b5 17)(= b5 18)(= b5 19)(= b5 20)))
(assert (or (= b6 1)(= b6 2)(= b6 3)(= b6 4)(= b6 5)(= b6 6)(= b6 7)(= b6 8)(= b6 9)(= b6 10)(= b6 11)(= b6 12)(= b6 13)(= b6 14)(= b6 15)(= b6 16)(= b6 17)(= b6 18)(= b6 19)(= b6 20)))
(assert (or (= b7 1)(= b7 2)(= b7 3)(= b7 4)(= b7 5)(= b7 6)(= b7 7)(= b7 8)(= b7 9)(= b7 10)(= b7 11)(= b7 12)(= b7 13)(= b7 14)(= b7 15)(= b7 16)(= b7 17)(= b7 18)(= b7 19)(= b7 20)))
(assert (or (= b8 1)(= b8 2)(= b8 3)(= b8 4)(= b8 5)(= b8 6)(= b8 7)(= b8 8)(= b8 9)(= b8 10)(= b8 11)(= b8 12)(= b8 13)(= b8 14)(= b8 15)(= b8 16)(= b8 17)(= b8 18)(= b8 19)(= b8 20)))
(assert (or (= b9 1)(= b9 2)(= b9 3)(= b9 4)(= b9 5)(= b9 6)(= b9 7)(= b9 8)(= b9 9)(= b9 10)(= b9 11)(= b9 12)(= b9 13)(= b9 14)(= b9 15)(= b9 16)(= b9 17)(= b9 18)(= b9 19)(= b9 20)))
(assert (or (= b10 1)(= b10 2)(= b10 3)(= b10 4)(= b10 5)(= b10 6)(= b10 7)(= b10 8)(= b10 9)(= b10 10)(= b10 11)(= b10 12)(= b10 13)(= b10 14)(= b10 15)(= b10 16)(= b10 17)(= b10 18)(= b10 19)(= b10 20)))
(assert (or (= b11 1)(= b11 2)(= b11 3)(= b11 4)(= b11 5)(= b11 6)(= b11 7)(= b11 8)(= b11 9)(= b11 10)(= b11 11)(= b11 12)(= b11 13)(= b11 14)(= b11 15)(= b11 16)(= b11 17)(= b11 18)(= b11 19)(= b11 20)))
(assert (or (= b12 1)(= b12 2)(= b12 3)(= b12 4)(= b12 5)(= b12 6)(= b12 7)(= b12 8)(= b12 9)(= b12 10)(= b12 11)(= b12 12)(= b12 13)(= b12 14)(= b12 15)(= b12 16)(= b12 17)(= b12 18)(= b12 19)(= b12 20)))
(assert (or (= b13 1)(= b13 2)(= b13 3)(= b13 4)(= b13 5)(= b13 6)(= b13 7)(= b13 8)(= b13 9)(= b13 10)(= b13 11)(= b13 12)(= b13 13)(= b13 14)(= b13 15)(= b13 16)(= b13 17)(= b13 18)(= b13 19)(= b13 20)))
(assert (or (= b14 1)(= b14 2)(= b14 3)(= b14 4)(= b14 5)(= b14 6)(= b14 7)(= b14 8)(= b14 9)(= b14 10)(= b14 11)(= b14 12)(= b14 13)(= b14 14)(= b14 15)(= b14 16)(= b14 17)(= b14 18)(= b14 19)(= b14 20)))
(assert (or (= b15 1)(= b15 2)(= b15 3)(= b15 4)(= b15 5)(= b15 6)(= b15 7)(= b15 8)(= b15 9)(= b15 10)(= b15 11)(= b15 12)(= b15 13)(= b15 14)(= b15 15)(= b15 16)(= b15 17)(= b15 18)(= b15 19)(= b15 20)))
(assert (or (= b16 1)(= b16 2)(= b16 3)(= b16 4)(= b16 5)(= b16 6)(= b16 7)(= b16 8)(= b16 9)(= b16 10)(= b16 11)(= b16 12)(= b16 13)(= b16 14)(= b16 15)(= b16 16)(= b16 17)(= b16 18)(= b16 19)(= b16 20)))
(assert (or (= b17 1)(= b17 2)(= b17 3)(= b17 4)(= b17 5)(= b17 6)(= b17 7)(= b17 8)(= b17 9)(= b17 10)(= b17 11)(= b17 12)(= b17 13)(= b17 14)(= b17 15)(= b17 16)(= b17 17)(= b17 18)(= b17 19)(= b17 20)))
(assert (or (= b18 1)(= b18 2)(= b18 3)(= b18 4)(= b18 5)(= b18 6)(= b18 7)(= b18 8)(= b18 9)(= b18 10)(= b18 11)(= b18 12)(= b18 13)(= b18 14)(= b18 15)(= b18 16)(= b18 17)(= b18 18)(= b18 19)(= b18 20)))
(assert (or (= b19 1)(= b19 2)(= b19 3)(= b19 4)(= b19 5)(= b19 6)(= b19 7)(= b19 8)(= b19 9)(= b19 10)(= b19 11)(= b19 12)(= b19 13)(= b19 14)(= b19 15)(= b19 16)(= b19 17)(= b19 18)(= b19 19)(= b19 20)))
(assert (or (= b20 1)(= b20 2)(= b20 3)(= b20 4)(= b20 5)(= b20 6)(= b20 7)(= b20 8)(= b20 9)(= b20 10)(= b20 11)(= b20 12)(= b20 13)(= b20 14)(= b20 15)(= b20 16)(= b20 17)(= b20 18)(= b20 19)(= b20 20)))

;; Ensure there are no duplicate between groups
(assert (or (< b1 b2)(< b2 b1)))
(assert (or (< b1 b3)(< b3 b1)))
(assert (or (< b1 b4)(< b4 b1)))
(assert (or (< b1 b5)(< b5 b1)))
(assert (or (< b1 b6)(< b6 b1)))
(assert (or (< b1 b7)(< b7 b1)))
(assert (or (< b1 b8)(< b8 b1)))
(assert (or (< b1 b9)(< b9 b1)))
(assert (or (< b1 b10)(< b10 b1)))
(assert (or (< b1 b11)(< b11 b1)))
(assert (or (< b1 b12)(< b12 b1)))
(assert (or (< b1 b13)(< b13 b1)))
(assert (or (< b1 b14)(< b14 b1)))
(assert (or (< b1 b15)(< b15 b1)))
(assert (or (< b1 b16)(< b16 b1)))
(assert (or (< b1 b17)(< b17 b1)))
(assert (or (< b1 b18)(< b18 b1)))
(assert (or (< b1 b19)(< b19 b1)))
(assert (or (< b1 b20)(< b20 b1)))
(assert (or (< b2 b1)(< b1 b2)))
(assert (or (< b2 b3)(< b3 b2)))
(assert (or (< b2 b4)(< b4 b2)))
(assert (or (< b2 b5)(< b5 b2)))
(assert (or (< b2 b6)(< b6 b2)))
(assert (or (< b2 b7)(< b7 b2)))
(assert (or (< b2 b8)(< b8 b2)))
(assert (or (< b2 b9)(< b9 b2)))
(assert (or (< b2 b10)(< b10 b2)))
(assert (or (< b2 b11)(< b11 b2)))
(assert (or (< b2 b12)(< b12 b2)))
(assert (or (< b2 b13)(< b13 b2)))
(assert (or (< b2 b14)(< b14 b2)))
(assert (or (< b2 b15)(< b15 b2)))
(assert (or (< b2 b16)(< b16 b2)))
(assert (or (< b2 b17)(< b17 b2)))
(assert (or (< b2 b18)(< b18 b2)))
(assert (or (< b2 b19)(< b19 b2)))
(assert (or (< b2 b20)(< b20 b2)))
(assert (or (< b3 b1)(< b1 b3)))
(assert (or (< b3 b2)(< b2 b3)))
(assert (or (< b3 b4)(< b4 b3)))
(assert (or (< b3 b5)(< b5 b3)))
(assert (or (< b3 b6)(< b6 b3)))
(assert (or (< b3 b7)(< b7 b3)))
(assert (or (< b3 b8)(< b8 b3)))
(assert (or (< b3 b9)(< b9 b3)))
(assert (or (< b3 b10)(< b10 b3)))
(assert (or (< b3 b11)(< b11 b3)))
(assert (or (< b3 b12)(< b12 b3)))
(assert (or (< b3 b13)(< b13 b3)))
(assert (or (< b3 b14)(< b14 b3)))
(assert (or (< b3 b15)(< b15 b3)))
(assert (or (< b3 b16)(< b16 b3)))
(assert (or (< b3 b17)(< b17 b3)))
(assert (or (< b3 b18)(< b18 b3)))
(assert (or (< b3 b19)(< b19 b3)))
(assert (or (< b3 b20)(< b20 b3)))
(assert (or (< b4 b1)(< b1 b4)))
(assert (or (< b4 b2)(< b2 b4)))
(assert (or (< b4 b3)(< b3 b4)))
(assert (or (< b4 b5)(< b5 b4)))
(assert (or (< b4 b6)(< b6 b4)))
(assert (or (< b4 b7)(< b7 b4)))
(assert (or (< b4 b8)(< b8 b4)))
(assert (or (< b4 b9)(< b9 b4)))
(assert (or (< b4 b10)(< b10 b4)))
(assert (or (< b4 b11)(< b11 b4)))
(assert (or (< b4 b12)(< b12 b4)))
(assert (or (< b4 b13)(< b13 b4)))
(assert (or (< b4 b14)(< b14 b4)))
(assert (or (< b4 b15)(< b15 b4)))
(assert (or (< b4 b16)(< b16 b4)))
(assert (or (< b4 b17)(< b17 b4)))
(assert (or (< b4 b18)(< b18 b4)))
(assert (or (< b4 b19)(< b19 b4)))
(assert (or (< b4 b20)(< b20 b4)))
(assert (or (< b5 b1)(< b1 b5)))
(assert (or (< b5 b2)(< b2 b5)))
(assert (or (< b5 b3)(< b3 b5)))
(assert (or (< b5 b4)(< b4 b5)))
(assert (or (< b5 b6)(< b6 b5)))
(assert (or (< b5 b7)(< b7 b5)))
(assert (or (< b5 b8)(< b8 b5)))
(assert (or (< b5 b9)(< b9 b5)))
(assert (or (< b5 b10)(< b10 b5)))
(assert (or (< b5 b11)(< b11 b5)))
(assert (or (< b5 b12)(< b12 b5)))
(assert (or (< b5 b13)(< b13 b5)))
(assert (or (< b5 b14)(< b14 b5)))
(assert (or (< b5 b15)(< b15 b5)))
(assert (or (< b5 b16)(< b16 b5)))
(assert (or (< b5 b17)(< b17 b5)))
(assert (or (< b5 b18)(< b18 b5)))
(assert (or (< b5 b19)(< b19 b5)))
(assert (or (< b5 b20)(< b20 b5)))
(assert (or (< b6 b1)(< b1 b6)))
(assert (or (< b6 b2)(< b2 b6)))
(assert (or (< b6 b3)(< b3 b6)))
(assert (or (< b6 b4)(< b4 b6)))
(assert (or (< b6 b5)(< b5 b6)))
(assert (or (< b6 b7)(< b7 b6)))
(assert (or (< b6 b8)(< b8 b6)))
(assert (or (< b6 b9)(< b9 b6)))
(assert (or (< b6 b10)(< b10 b6)))
(assert (or (< b6 b11)(< b11 b6)))
(assert (or (< b6 b12)(< b12 b6)))
(assert (or (< b6 b13)(< b13 b6)))
(assert (or (< b6 b14)(< b14 b6)))
(assert (or (< b6 b15)(< b15 b6)))
(assert (or (< b6 b16)(< b16 b6)))
(assert (or (< b6 b17)(< b17 b6)))
(assert (or (< b6 b18)(< b18 b6)))
(assert (or (< b6 b19)(< b19 b6)))
(assert (or (< b6 b20)(< b20 b6)))
(assert (or (< b7 b1)(< b1 b7)))
(assert (or (< b7 b2)(< b2 b7)))
(assert (or (< b7 b3)(< b3 b7)))
(assert (or (< b7 b4)(< b4 b7)))
(assert (or (< b7 b5)(< b5 b7)))
(assert (or (< b7 b6)(< b6 b7)))
(assert (or (< b7 b8)(< b8 b7)))
(assert (or (< b7 b9)(< b9 b7)))
(assert (or (< b7 b10)(< b10 b7)))
(assert (or (< b7 b11)(< b11 b7)))
(assert (or (< b7 b12)(< b12 b7)))
(assert (or (< b7 b13)(< b13 b7)))
(assert (or (< b7 b14)(< b14 b7)))
(assert (or (< b7 b15)(< b15 b7)))
(assert (or (< b7 b16)(< b16 b7)))
(assert (or (< b7 b17)(< b17 b7)))
(assert (or (< b7 b18)(< b18 b7)))
(assert (or (< b7 b19)(< b19 b7)))
(assert (or (< b7 b20)(< b20 b7)))
(assert (or (< b8 b1)(< b1 b8)))
(assert (or (< b8 b2)(< b2 b8)))
(assert (or (< b8 b3)(< b3 b8)))
(assert (or (< b8 b4)(< b4 b8)))
(assert (or (< b8 b5)(< b5 b8)))
(assert (or (< b8 b6)(< b6 b8)))
(assert (or (< b8 b7)(< b7 b8)))
(assert (or (< b8 b9)(< b9 b8)))
(assert (or (< b8 b10)(< b10 b8)))
(assert (or (< b8 b11)(< b11 b8)))
(assert (or (< b8 b12)(< b12 b8)))
(assert (or (< b8 b13)(< b13 b8)))
(assert (or (< b8 b14)(< b14 b8)))
(assert (or (< b8 b15)(< b15 b8)))
(assert (or (< b8 b16)(< b16 b8)))
(assert (or (< b8 b17)(< b17 b8)))
(assert (or (< b8 b18)(< b18 b8)))
(assert (or (< b8 b19)(< b19 b8)))
(assert (or (< b8 b20)(< b20 b8)))
(assert (or (< b9 b1)(< b1 b9)))
(assert (or (< b9 b2)(< b2 b9)))
(assert (or (< b9 b3)(< b3 b9)))
(assert (or (< b9 b4)(< b4 b9)))
(assert (or (< b9 b5)(< b5 b9)))
(assert (or (< b9 b6)(< b6 b9)))
(assert (or (< b9 b7)(< b7 b9)))
(assert (or (< b9 b8)(< b8 b9)))
(assert (or (< b9 b10)(< b10 b9)))
(assert (or (< b9 b11)(< b11 b9)))
(assert (or (< b9 b12)(< b12 b9)))
(assert (or (< b9 b13)(< b13 b9)))
(assert (or (< b9 b14)(< b14 b9)))
(assert (or (< b9 b15)(< b15 b9)))
(assert (or (< b9 b16)(< b16 b9)))
(assert (or (< b9 b17)(< b17 b9)))
(assert (or (< b9 b18)(< b18 b9)))
(assert (or (< b9 b19)(< b19 b9)))
(assert (or (< b9 b20)(< b20 b9)))
(assert (or (< b10 b1)(< b1 b10)))
(assert (or (< b10 b2)(< b2 b10)))
(assert (or (< b10 b3)(< b3 b10)))
(assert (or (< b10 b4)(< b4 b10)))
(assert (or (< b10 b5)(< b5 b10)))
(assert (or (< b10 b6)(< b6 b10)))
(assert (or (< b10 b7)(< b7 b10)))
(assert (or (< b10 b8)(< b8 b10)))
(assert (or (< b10 b9)(< b9 b10)))
(assert (or (< b10 b11)(< b11 b10)))
(assert (or (< b10 b12)(< b12 b10)))
(assert (or (< b10 b13)(< b13 b10)))
(assert (or (< b10 b14)(< b14 b10)))
(assert (or (< b10 b15)(< b15 b10)))
(assert (or (< b10 b16)(< b16 b10)))
(assert (or (< b10 b17)(< b17 b10)))
(assert (or (< b10 b18)(< b18 b10)))
(assert (or (< b10 b19)(< b19 b10)))
(assert (or (< b10 b20)(< b20 b10)))
(assert (or (< b11 b1)(< b1 b11)))
(assert (or (< b11 b2)(< b2 b11)))
(assert (or (< b11 b3)(< b3 b11)))
(assert (or (< b11 b4)(< b4 b11)))
(assert (or (< b11 b5)(< b5 b11)))
(assert (or (< b11 b6)(< b6 b11)))
(assert (or (< b11 b7)(< b7 b11)))
(assert (or (< b11 b8)(< b8 b11)))
(assert (or (< b11 b9)(< b9 b11)))
(assert (or (< b11 b10)(< b10 b11)))
(assert (or (< b11 b12)(< b12 b11)))
(assert (or (< b11 b13)(< b13 b11)))
(assert (or (< b11 b14)(< b14 b11)))
(assert (or (< b11 b15)(< b15 b11)))
(assert (or (< b11 b16)(< b16 b11)))
(assert (or (< b11 b17)(< b17 b11)))
(assert (or (< b11 b18)(< b18 b11)))
(assert (or (< b11 b19)(< b19 b11)))
(assert (or (< b11 b20)(< b20 b11)))
(assert (or (< b12 b1)(< b1 b12)))
(assert (or (< b12 b2)(< b2 b12)))
(assert (or (< b12 b3)(< b3 b12)))
(assert (or (< b12 b4)(< b4 b12)))
(assert (or (< b12 b5)(< b5 b12)))
(assert (or (< b12 b6)(< b6 b12)))
(assert (or (< b12 b7)(< b7 b12)))
(assert (or (< b12 b8)(< b8 b12)))
(assert (or (< b12 b9)(< b9 b12)))
(assert (or (< b12 b10)(< b10 b12)))
(assert (or (< b12 b11)(< b11 b12)))
(assert (or (< b12 b13)(< b13 b12)))
(assert (or (< b12 b14)(< b14 b12)))
(assert (or (< b12 b15)(< b15 b12)))
(assert (or (< b12 b16)(< b16 b12)))
(assert (or (< b12 b17)(< b17 b12)))
(assert (or (< b12 b18)(< b18 b12)))
(assert (or (< b12 b19)(< b19 b12)))
(assert (or (< b12 b20)(< b20 b12)))
(assert (or (< b13 b1)(< b1 b13)))
(assert (or (< b13 b2)(< b2 b13)))
(assert (or (< b13 b3)(< b3 b13)))
(assert (or (< b13 b4)(< b4 b13)))
(assert (or (< b13 b5)(< b5 b13)))
(assert (or (< b13 b6)(< b6 b13)))
(assert (or (< b13 b7)(< b7 b13)))
(assert (or (< b13 b8)(< b8 b13)))
(assert (or (< b13 b9)(< b9 b13)))
(assert (or (< b13 b10)(< b10 b13)))
(assert (or (< b13 b11)(< b11 b13)))
(assert (or (< b13 b12)(< b12 b13)))
(assert (or (< b13 b14)(< b14 b13)))
(assert (or (< b13 b15)(< b15 b13)))
(assert (or (< b13 b16)(< b16 b13)))
(assert (or (< b13 b17)(< b17 b13)))
(assert (or (< b13 b18)(< b18 b13)))
(assert (or (< b13 b19)(< b19 b13)))
(assert (or (< b13 b20)(< b20 b13)))
(assert (or (< b14 b1)(< b1 b14)))
(assert (or (< b14 b2)(< b2 b14)))
(assert (or (< b14 b3)(< b3 b14)))
(assert (or (< b14 b4)(< b4 b14)))
(assert (or (< b14 b5)(< b5 b14)))
(assert (or (< b14 b6)(< b6 b14)))
(assert (or (< b14 b7)(< b7 b14)))
(assert (or (< b14 b8)(< b8 b14)))
(assert (or (< b14 b9)(< b9 b14)))
(assert (or (< b14 b10)(< b10 b14)))
(assert (or (< b14 b11)(< b11 b14)))
(assert (or (< b14 b12)(< b12 b14)))
(assert (or (< b14 b13)(< b13 b14)))
(assert (or (< b14 b15)(< b15 b14)))
(assert (or (< b14 b16)(< b16 b14)))
(assert (or (< b14 b17)(< b17 b14)))
(assert (or (< b14 b18)(< b18 b14)))
(assert (or (< b14 b19)(< b19 b14)))
(assert (or (< b14 b20)(< b20 b14)))
(assert (or (< b15 b1)(< b1 b15)))
(assert (or (< b15 b2)(< b2 b15)))
(assert (or (< b15 b3)(< b3 b15)))
(assert (or (< b15 b4)(< b4 b15)))
(assert (or (< b15 b5)(< b5 b15)))
(assert (or (< b15 b6)(< b6 b15)))
(assert (or (< b15 b7)(< b7 b15)))
(assert (or (< b15 b8)(< b8 b15)))
(assert (or (< b15 b9)(< b9 b15)))
(assert (or (< b15 b10)(< b10 b15)))
(assert (or (< b15 b11)(< b11 b15)))
(assert (or (< b15 b12)(< b12 b15)))
(assert (or (< b15 b13)(< b13 b15)))
(assert (or (< b15 b14)(< b14 b15)))
(assert (or (< b15 b16)(< b16 b15)))
(assert (or (< b15 b17)(< b17 b15)))
(assert (or (< b15 b18)(< b18 b15)))
(assert (or (< b15 b19)(< b19 b15)))
(assert (or (< b15 b20)(< b20 b15)))
(assert (or (< b16 b1)(< b1 b16)))
(assert (or (< b16 b2)(< b2 b16)))
(assert (or (< b16 b3)(< b3 b16)))
(assert (or (< b16 b4)(< b4 b16)))
(assert (or (< b16 b5)(< b5 b16)))
(assert (or (< b16 b6)(< b6 b16)))
(assert (or (< b16 b7)(< b7 b16)))
(assert (or (< b16 b8)(< b8 b16)))
(assert (or (< b16 b9)(< b9 b16)))
(assert (or (< b16 b10)(< b10 b16)))
(assert (or (< b16 b11)(< b11 b16)))
(assert (or (< b16 b12)(< b12 b16)))
(assert (or (< b16 b13)(< b13 b16)))
(assert (or (< b16 b14)(< b14 b16)))
(assert (or (< b16 b15)(< b15 b16)))
(assert (or (< b16 b17)(< b17 b16)))
(assert (or (< b16 b18)(< b18 b16)))
(assert (or (< b16 b19)(< b19 b16)))
(assert (or (< b16 b20)(< b20 b16)))
(assert (or (< b17 b1)(< b1 b17)))
(assert (or (< b17 b2)(< b2 b17)))
(assert (or (< b17 b3)(< b3 b17)))
(assert (or (< b17 b4)(< b4 b17)))
(assert (or (< b17 b5)(< b5 b17)))
(assert (or (< b17 b6)(< b6 b17)))
(assert (or (< b17 b7)(< b7 b17)))
(assert (or (< b17 b8)(< b8 b17)))
(assert (or (< b17 b9)(< b9 b17)))
(assert (or (< b17 b10)(< b10 b17)))
(assert (or (< b17 b11)(< b11 b17)))
(assert (or (< b17 b12)(< b12 b17)))
(assert (or (< b17 b13)(< b13 b17)))
(assert (or (< b17 b14)(< b14 b17)))
(assert (or (< b17 b15)(< b15 b17)))
(assert (or (< b17 b16)(< b16 b17)))
(assert (or (< b17 b18)(< b18 b17)))
(assert (or (< b17 b19)(< b19 b17)))
(assert (or (< b17 b20)(< b20 b17)))
(assert (or (< b18 b1)(< b1 b18)))
(assert (or (< b18 b2)(< b2 b18)))
(assert (or (< b18 b3)(< b3 b18)))
(assert (or (< b18 b4)(< b4 b18)))
(assert (or (< b18 b5)(< b5 b18)))
(assert (or (< b18 b6)(< b6 b18)))
(assert (or (< b18 b7)(< b7 b18)))
(assert (or (< b18 b8)(< b8 b18)))
(assert (or (< b18 b9)(< b9 b18)))
(assert (or (< b18 b10)(< b10 b18)))
(assert (or (< b18 b11)(< b11 b18)))
(assert (or (< b18 b12)(< b12 b18)))
(assert (or (< b18 b13)(< b13 b18)))
(assert (or (< b18 b14)(< b14 b18)))
(assert (or (< b18 b15)(< b15 b18)))
(assert (or (< b18 b16)(< b16 b18)))
(assert (or (< b18 b17)(< b17 b18)))
(assert (or (< b18 b19)(< b19 b18)))
(assert (or (< b18 b20)(< b20 b18)))
(assert (or (< b19 b1)(< b1 b19)))
(assert (or (< b19 b2)(< b2 b19)))
(assert (or (< b19 b3)(< b3 b19)))
(assert (or (< b19 b4)(< b4 b19)))
(assert (or (< b19 b5)(< b5 b19)))
(assert (or (< b19 b6)(< b6 b19)))
(assert (or (< b19 b7)(< b7 b19)))
(assert (or (< b19 b8)(< b8 b19)))
(assert (or (< b19 b9)(< b9 b19)))
(assert (or (< b19 b10)(< b10 b19)))
(assert (or (< b19 b11)(< b11 b19)))
(assert (or (< b19 b12)(< b12 b19)))
(assert (or (< b19 b13)(< b13 b19)))
(assert (or (< b19 b14)(< b14 b19)))
(assert (or (< b19 b15)(< b15 b19)))
(assert (or (< b19 b16)(< b16 b19)))
(assert (or (< b19 b17)(< b17 b19)))
(assert (or (< b19 b18)(< b18 b19)))
(assert (or (< b19 b20)(< b20 b19)))
(assert (or (< b20 b1)(< b1 b20)))
(assert (or (< b20 b2)(< b2 b20)))
(assert (or (< b20 b3)(< b3 b20)))
(assert (or (< b20 b4)(< b4 b20)))
(assert (or (< b20 b5)(< b5 b20)))
(assert (or (< b20 b6)(< b6 b20)))
(assert (or (< b20 b7)(< b7 b20)))
(assert (or (< b20 b8)(< b8 b20)))
(assert (or (< b20 b9)(< b9 b20)))
(assert (or (< b20 b10)(< b10 b20)))
(assert (or (< b20 b11)(< b11 b20)))
(assert (or (< b20 b12)(< b12 b20)))
(assert (or (< b20 b13)(< b13 b20)))
(assert (or (< b20 b14)(< b14 b20)))
(assert (or (< b20 b15)(< b15 b20)))
(assert (or (< b20 b16)(< b16 b20)))
(assert (or (< b20 b17)(< b17 b20)))
(assert (or (< b20 b18)(< b18 b20)))
(assert (or (< b20 b19)(< b19 b20)))

;; Ensures each student is in the same group
(assert (or (= b1 1)(and (= b1 2)(= b2 1))(and (= b1 3)(= b3 1))(and (= b1 4)(= b4 1))(and (= b1 5)(= b5 1))(and (= b1 6)(= b6 1))(and (= b1 7)(= b7 1))(and (= b1 8)(= b8 1))(and (= b1 9)(= b9 1))(and (= b1 10)(= b10 1))(and (= b1 11)(= b11 1))(and (= b1 12)(= b12 1))(and (= b1 13)(= b13 1))(and (= b1 14)(= b14 1))(and (= b1 15)(= b15 1))(and (= b1 16)(= b16 1))(and (= b1 17)(= b17 1))(and (= b1 18)(= b18 1))(and (= b1 19)(= b19 1))(and (= b1 20)(= b20 1))))
(assert (or (= b2 2)(and (= b2 1)(= b1 2))(and (= b2 3)(= b3 2))(and (= b2 4)(= b4 2))(and (= b2 5)(= b5 2))(and (= b2 6)(= b6 2))(and (= b2 7)(= b7 2))(and (= b2 8)(= b8 2))(and (= b2 9)(= b9 2))(and (= b2 10)(= b10 2))(and (= b2 11)(= b11 2))(and (= b2 12)(= b12 2))(and (= b2 13)(= b13 2))(and (= b2 14)(= b14 2))(and (= b2 15)(= b15 2))(and (= b2 16)(= b16 2))(and (= b2 17)(= b17 2))(and (= b2 18)(= b18 2))(and (= b2 19)(= b19 2))(and (= b2 20)(= b20 2))))
(assert (or (= b3 3)(and (= b3 1)(= b1 3))(and (= b3 2)(= b2 3))(and (= b3 4)(= b4 3))(and (= b3 5)(= b5 3))(and (= b3 6)(= b6 3))(and (= b3 7)(= b7 3))(and (= b3 8)(= b8 3))(and (= b3 9)(= b9 3))(and (= b3 10)(= b10 3))(and (= b3 11)(= b11 3))(and (= b3 12)(= b12 3))(and (= b3 13)(= b13 3))(and (= b3 14)(= b14 3))(and (= b3 15)(= b15 3))(and (= b3 16)(= b16 3))(and (= b3 17)(= b17 3))(and (= b3 18)(= b18 3))(and (= b3 19)(= b19 3))(and (= b3 20)(= b20 3))))
(assert (or (= b4 4)(and (= b4 1)(= b1 4))(and (= b4 2)(= b2 4))(and (= b4 3)(= b3 4))(and (= b4 5)(= b5 4))(and (= b4 6)(= b6 4))(and (= b4 7)(= b7 4))(and (= b4 8)(= b8 4))(and (= b4 9)(= b9 4))(and (= b4 10)(= b10 4))(and (= b4 11)(= b11 4))(and (= b4 12)(= b12 4))(and (= b4 13)(= b13 4))(and (= b4 14)(= b14 4))(and (= b4 15)(= b15 4))(and (= b4 16)(= b16 4))(and (= b4 17)(= b17 4))(and (= b4 18)(= b18 4))(and (= b4 19)(= b19 4))(and (= b4 20)(= b20 4))))
(assert (or (= b5 5)(and (= b5 1)(= b1 5))(and (= b5 2)(= b2 5))(and (= b5 3)(= b3 5))(and (= b5 4)(= b4 5))(and (= b5 6)(= b6 5))(and (= b5 7)(= b7 5))(and (= b5 8)(= b8 5))(and (= b5 9)(= b9 5))(and (= b5 10)(= b10 5))(and (= b5 11)(= b11 5))(and (= b5 12)(= b12 5))(and (= b5 13)(= b13 5))(and (= b5 14)(= b14 5))(and (= b5 15)(= b15 5))(and (= b5 16)(= b16 5))(and (= b5 17)(= b17 5))(and (= b5 18)(= b18 5))(and (= b5 19)(= b19 5))(and (= b5 20)(= b20 5))))
(assert (or (= b6 6)(and (= b6 1)(= b1 6))(and (= b6 2)(= b2 6))(and (= b6 3)(= b3 6))(and (= b6 4)(= b4 6))(and (= b6 5)(= b5 6))(and (= b6 7)(= b7 6))(and (= b6 8)(= b8 6))(and (= b6 9)(= b9 6))(and (= b6 10)(= b10 6))(and (= b6 11)(= b11 6))(and (= b6 12)(= b12 6))(and (= b6 13)(= b13 6))(and (= b6 14)(= b14 6))(and (= b6 15)(= b15 6))(and (= b6 16)(= b16 6))(and (= b6 17)(= b17 6))(and (= b6 18)(= b18 6))(and (= b6 19)(= b19 6))(and (= b6 20)(= b20 6))))
(assert (or (= b7 7)(and (= b7 1)(= b1 7))(and (= b7 2)(= b2 7))(and (= b7 3)(= b3 7))(and (= b7 4)(= b4 7))(and (= b7 5)(= b5 7))(and (= b7 6)(= b6 7))(and (= b7 8)(= b8 7))(and (= b7 9)(= b9 7))(and (= b7 10)(= b10 7))(and (= b7 11)(= b11 7))(and (= b7 12)(= b12 7))(and (= b7 13)(= b13 7))(and (= b7 14)(= b14 7))(and (= b7 15)(= b15 7))(and (= b7 16)(= b16 7))(and (= b7 17)(= b17 7))(and (= b7 18)(= b18 7))(and (= b7 19)(= b19 7))(and (= b7 20)(= b20 7))))
(assert (or (= b8 8)(and (= b8 1)(= b1 8))(and (= b8 2)(= b2 8))(and (= b8 3)(= b3 8))(and (= b8 4)(= b4 8))(and (= b8 5)(= b5 8))(and (= b8 6)(= b6 8))(and (= b8 7)(= b7 8))(and (= b8 9)(= b9 8))(and (= b8 10)(= b10 8))(and (= b8 11)(= b11 8))(and (= b8 12)(= b12 8))(and (= b8 13)(= b13 8))(and (= b8 14)(= b14 8))(and (= b8 15)(= b15 8))(and (= b8 16)(= b16 8))(and (= b8 17)(= b17 8))(and (= b8 18)(= b18 8))(and (= b8 19)(= b19 8))(and (= b8 20)(= b20 8))))
(assert (or (= b9 9)(and (= b9 1)(= b1 9))(and (= b9 2)(= b2 9))(and (= b9 3)(= b3 9))(and (= b9 4)(= b4 9))(and (= b9 5)(= b5 9))(and (= b9 6)(= b6 9))(and (= b9 7)(= b7 9))(and (= b9 8)(= b8 9))(and (= b9 10)(= b10 9))(and (= b9 11)(= b11 9))(and (= b9 12)(= b12 9))(and (= b9 13)(= b13 9))(and (= b9 14)(= b14 9))(and (= b9 15)(= b15 9))(and (= b9 16)(= b16 9))(and (= b9 17)(= b17 9))(and (= b9 18)(= b18 9))(and (= b9 19)(= b19 9))(and (= b9 20)(= b20 9))))
(assert (or (= b10 10)(and (= b10 1)(= b1 10))(and (= b10 2)(= b2 10))(and (= b10 3)(= b3 10))(and (= b10 4)(= b4 10))(and (= b10 5)(= b5 10))(and (= b10 6)(= b6 10))(and (= b10 7)(= b7 10))(and (= b10 8)(= b8 10))(and (= b10 9)(= b9 10))(and (= b10 11)(= b11 10))(and (= b10 12)(= b12 10))(and (= b10 13)(= b13 10))(and (= b10 14)(= b14 10))(and (= b10 15)(= b15 10))(and (= b10 16)(= b16 10))(and (= b10 17)(= b17 10))(and (= b10 18)(= b18 10))(and (= b10 19)(= b19 10))(and (= b10 20)(= b20 10))))
(assert (or (= b11 11)(and (= b11 1)(= b1 11))(and (= b11 2)(= b2 11))(and (= b11 3)(= b3 11))(and (= b11 4)(= b4 11))(and (= b11 5)(= b5 11))(and (= b11 6)(= b6 11))(and (= b11 7)(= b7 11))(and (= b11 8)(= b8 11))(and (= b11 9)(= b9 11))(and (= b11 10)(= b10 11))(and (= b11 12)(= b12 11))(and (= b11 13)(= b13 11))(and (= b11 14)(= b14 11))(and (= b11 15)(= b15 11))(and (= b11 16)(= b16 11))(and (= b11 17)(= b17 11))(and (= b11 18)(= b18 11))(and (= b11 19)(= b19 11))(and (= b11 20)(= b20 11))))
(assert (or (= b12 12)(and (= b12 1)(= b1 12))(and (= b12 2)(= b2 12))(and (= b12 3)(= b3 12))(and (= b12 4)(= b4 12))(and (= b12 5)(= b5 12))(and (= b12 6)(= b6 12))(and (= b12 7)(= b7 12))(and (= b12 8)(= b8 12))(and (= b12 9)(= b9 12))(and (= b12 10)(= b10 12))(and (= b12 11)(= b11 12))(and (= b12 13)(= b13 12))(and (= b12 14)(= b14 12))(and (= b12 15)(= b15 12))(and (= b12 16)(= b16 12))(and (= b12 17)(= b17 12))(and (= b12 18)(= b18 12))(and (= b12 19)(= b19 12))(and (= b12 20)(= b20 12))))
(assert (or (= b13 13)(and (= b13 1)(= b1 13))(and (= b13 2)(= b2 13))(and (= b13 3)(= b3 13))(and (= b13 4)(= b4 13))(and (= b13 5)(= b5 13))(and (= b13 6)(= b6 13))(and (= b13 7)(= b7 13))(and (= b13 8)(= b8 13))(and (= b13 9)(= b9 13))(and (= b13 10)(= b10 13))(and (= b13 11)(= b11 13))(and (= b13 12)(= b12 13))(and (= b13 14)(= b14 13))(and (= b13 15)(= b15 13))(and (= b13 16)(= b16 13))(and (= b13 17)(= b17 13))(and (= b13 18)(= b18 13))(and (= b13 19)(= b19 13))(and (= b13 20)(= b20 13))))
(assert (or (= b14 14)(and (= b14 1)(= b1 14))(and (= b14 2)(= b2 14))(and (= b14 3)(= b3 14))(and (= b14 4)(= b4 14))(and (= b14 5)(= b5 14))(and (= b14 6)(= b6 14))(and (= b14 7)(= b7 14))(and (= b14 8)(= b8 14))(and (= b14 9)(= b9 14))(and (= b14 10)(= b10 14))(and (= b14 11)(= b11 14))(and (= b14 12)(= b12 14))(and (= b14 13)(= b13 14))(and (= b14 15)(= b15 14))(and (= b14 16)(= b16 14))(and (= b14 17)(= b17 14))(and (= b14 18)(= b18 14))(and (= b14 19)(= b19 14))(and (= b14 20)(= b20 14))))
(assert (or (= b15 15)(and (= b15 1)(= b1 15))(and (= b15 2)(= b2 15))(and (= b15 3)(= b3 15))(and (= b15 4)(= b4 15))(and (= b15 5)(= b5 15))(and (= b15 6)(= b6 15))(and (= b15 7)(= b7 15))(and (= b15 8)(= b8 15))(and (= b15 9)(= b9 15))(and (= b15 10)(= b10 15))(and (= b15 11)(= b11 15))(and (= b15 12)(= b12 15))(and (= b15 13)(= b13 15))(and (= b15 14)(= b14 15))(and (= b15 16)(= b16 15))(and (= b15 17)(= b17 15))(and (= b15 18)(= b18 15))(and (= b15 19)(= b19 15))(and (= b15 20)(= b20 15))))
(assert (or (= b16 16)(and (= b16 1)(= b1 16))(and (= b16 2)(= b2 16))(and (= b16 3)(= b3 16))(and (= b16 4)(= b4 16))(and (= b16 5)(= b5 16))(and (= b16 6)(= b6 16))(and (= b16 7)(= b7 16))(and (= b16 8)(= b8 16))(and (= b16 9)(= b9 16))(and (= b16 10)(= b10 16))(and (= b16 11)(= b11 16))(and (= b16 12)(= b12 16))(and (= b16 13)(= b13 16))(and (= b16 14)(= b14 16))(and (= b16 15)(= b15 16))(and (= b16 17)(= b17 16))(and (= b16 18)(= b18 16))(and (= b16 19)(= b19 16))(and (= b16 20)(= b20 16))))
(assert (or (= b17 17)(and (= b17 1)(= b1 17))(and (= b17 2)(= b2 17))(and (= b17 3)(= b3 17))(and (= b17 4)(= b4 17))(and (= b17 5)(= b5 17))(and (= b17 6)(= b6 17))(and (= b17 7)(= b7 17))(and (= b17 8)(= b8 17))(and (= b17 9)(= b9 17))(and (= b17 10)(= b10 17))(and (= b17 11)(= b11 17))(and (= b17 12)(= b12 17))(and (= b17 13)(= b13 17))(and (= b17 14)(= b14 17))(and (= b17 15)(= b15 17))(and (= b17 16)(= b16 17))(and (= b17 18)(= b18 17))(and (= b17 19)(= b19 17))(and (= b17 20)(= b20 17))))
(assert (or (= b18 18)(and (= b18 1)(= b1 18))(and (= b18 2)(= b2 18))(and (= b18 3)(= b3 18))(and (= b18 4)(= b4 18))(and (= b18 5)(= b5 18))(and (= b18 6)(= b6 18))(and (= b18 7)(= b7 18))(and (= b18 8)(= b8 18))(and (= b18 9)(= b9 18))(and (= b18 10)(= b10 18))(and (= b18 11)(= b11 18))(and (= b18 12)(= b12 18))(and (= b18 13)(= b13 18))(and (= b18 14)(= b14 18))(and (= b18 15)(= b15 18))(and (= b18 16)(= b16 18))(and (= b18 17)(= b17 18))(and (= b18 19)(= b19 18))(and (= b18 20)(= b20 18))))
(assert (or (= b19 19)(and (= b19 1)(= b1 19))(and (= b19 2)(= b2 19))(and (= b19 3)(= b3 19))(and (= b19 4)(= b4 19))(and (= b19 5)(= b5 19))(and (= b19 6)(= b6 19))(and (= b19 7)(= b7 19))(and (= b19 8)(= b8 19))(and (= b19 9)(= b9 19))(and (= b19 10)(= b10 19))(and (= b19 11)(= b11 19))(and (= b19 12)(= b12 19))(and (= b19 13)(= b13 19))(and (= b19 14)(= b14 19))(and (= b19 15)(= b15 19))(and (= b19 16)(= b16 19))(and (= b19 17)(= b17 19))(and (= b19 18)(= b18 19))(and (= b19 20)(= b20 19))))
(assert (or (= b20 20)(and (= b20 1)(= b1 20))(and (= b20 2)(= b2 20))(and (= b20 3)(= b3 20))(and (= b20 4)(= b4 20))(and (= b20 5)(= b5 20))(and (= b20 6)(= b6 20))(and (= b20 7)(= b7 20))(and (= b20 8)(= b8 20))(and (= b20 9)(= b9 20))(and (= b20 10)(= b10 20))(and (= b20 11)(= b11 20))(and (= b20 12)(= b12 20))(and (= b20 13)(= b13 20))(and (= b20 14)(= b14 20))(and (= b20 15)(= b15 20))(and (= b20 16)(= b16 20))(and (= b20 17)(= b17 20))(and (= b20 18)(= b18 20))(and (= b20 19)(= b19 20))))

;; Ensures each student is in the same group
(assert-soft (or (and (= b1 2)(= b2 1))(and (= b1 3)(= b3 1))(and (= b1 4)(= b4 1))(and (= b1 5)(= b5 1))(and (= b1 6)(= b6 1))(and (= b1 7)(= b7 1))(and (= b1 8)(= b8 1))(and (= b1 9)(= b9 1))(and (= b1 10)(= b10 1))(and (= b1 11)(= b11 1))(and (= b1 12)(= b12 1))(and (= b1 13)(= b13 1))(and (= b1 14)(= b14 1))(and (= b1 15)(= b15 1))(and (= b1 16)(= b16 1))(and (= b1 17)(= b17 1))(and (= b1 18)(= b18 1))(and (= b1 19)(= b19 1))(and (= b1 20)(= b20 1))))
(assert-soft (or (and (= b2 1)(= b1 2))(and (= b2 3)(= b3 2))(and (= b2 4)(= b4 2))(and (= b2 5)(= b5 2))(and (= b2 6)(= b6 2))(and (= b2 7)(= b7 2))(and (= b2 8)(= b8 2))(and (= b2 9)(= b9 2))(and (= b2 10)(= b10 2))(and (= b2 11)(= b11 2))(and (= b2 12)(= b12 2))(and (= b2 13)(= b13 2))(and (= b2 14)(= b14 2))(and (= b2 15)(= b15 2))(and (= b2 16)(= b16 2))(and (= b2 17)(= b17 2))(and (= b2 18)(= b18 2))(and (= b2 19)(= b19 2))(and (= b2 20)(= b20 2))))
(assert-soft (or (and (= b3 1)(= b1 3))(and (= b3 2)(= b2 3))(and (= b3 4)(= b4 3))(and (= b3 5)(= b5 3))(and (= b3 6)(= b6 3))(and (= b3 7)(= b7 3))(and (= b3 8)(= b8 3))(and (= b3 9)(= b9 3))(and (= b3 10)(= b10 3))(and (= b3 11)(= b11 3))(and (= b3 12)(= b12 3))(and (= b3 13)(= b13 3))(and (= b3 14)(= b14 3))(and (= b3 15)(= b15 3))(and (= b3 16)(= b16 3))(and (= b3 17)(= b17 3))(and (= b3 18)(= b18 3))(and (= b3 19)(= b19 3))(and (= b3 20)(= b20 3))))
(assert-soft (or (and (= b4 1)(= b1 4))(and (= b4 2)(= b2 4))(and (= b4 3)(= b3 4))(and (= b4 5)(= b5 4))(and (= b4 6)(= b6 4))(and (= b4 7)(= b7 4))(and (= b4 8)(= b8 4))(and (= b4 9)(= b9 4))(and (= b4 10)(= b10 4))(and (= b4 11)(= b11 4))(and (= b4 12)(= b12 4))(and (= b4 13)(= b13 4))(and (= b4 14)(= b14 4))(and (= b4 15)(= b15 4))(and (= b4 16)(= b16 4))(and (= b4 17)(= b17 4))(and (= b4 18)(= b18 4))(and (= b4 19)(= b19 4))(and (= b4 20)(= b20 4))))
(assert-soft (or (and (= b5 1)(= b1 5))(and (= b5 2)(= b2 5))(and (= b5 3)(= b3 5))(and (= b5 4)(= b4 5))(and (= b5 6)(= b6 5))(and (= b5 7)(= b7 5))(and (= b5 8)(= b8 5))(and (= b5 9)(= b9 5))(and (= b5 10)(= b10 5))(and (= b5 11)(= b11 5))(and (= b5 12)(= b12 5))(and (= b5 13)(= b13 5))(and (= b5 14)(= b14 5))(and (= b5 15)(= b15 5))(and (= b5 16)(= b16 5))(and (= b5 17)(= b17 5))(and (= b5 18)(= b18 5))(and (= b5 19)(= b19 5))(and (= b5 20)(= b20 5))))
(assert-soft (or (and (= b6 1)(= b1 6))(and (= b6 2)(= b2 6))(and (= b6 3)(= b3 6))(and (= b6 4)(= b4 6))(and (= b6 5)(= b5 6))(and (= b6 7)(= b7 6))(and (= b6 8)(= b8 6))(and (= b6 9)(= b9 6))(and (= b6 10)(= b10 6))(and (= b6 11)(= b11 6))(and (= b6 12)(= b12 6))(and (= b6 13)(= b13 6))(and (= b6 14)(= b14 6))(and (= b6 15)(= b15 6))(and (= b6 16)(= b16 6))(and (= b6 17)(= b17 6))(and (= b6 18)(= b18 6))(and (= b6 19)(= b19 6))(and (= b6 20)(= b20 6))))
(assert-soft (or (and (= b7 1)(= b1 7))(and (= b7 2)(= b2 7))(and (= b7 3)(= b3 7))(and (= b7 4)(= b4 7))(and (= b7 5)(= b5 7))(and (= b7 6)(= b6 7))(and (= b7 8)(= b8 7))(and (= b7 9)(= b9 7))(and (= b7 10)(= b10 7))(and (= b7 11)(= b11 7))(and (= b7 12)(= b12 7))(and (= b7 13)(= b13 7))(and (= b7 14)(= b14 7))(and (= b7 15)(= b15 7))(and (= b7 16)(= b16 7))(and (= b7 17)(= b17 7))(and (= b7 18)(= b18 7))(and (= b7 19)(= b19 7))(and (= b7 20)(= b20 7))))
(assert-soft (or (and (= b8 1)(= b1 8))(and (= b8 2)(= b2 8))(and (= b8 3)(= b3 8))(and (= b8 4)(= b4 8))(and (= b8 5)(= b5 8))(and (= b8 6)(= b6 8))(and (= b8 7)(= b7 8))(and (= b8 9)(= b9 8))(and (= b8 10)(= b10 8))(and (= b8 11)(= b11 8))(and (= b8 12)(= b12 8))(and (= b8 13)(= b13 8))(and (= b8 14)(= b14 8))(and (= b8 15)(= b15 8))(and (= b8 16)(= b16 8))(and (= b8 17)(= b17 8))(and (= b8 18)(= b18 8))(and (= b8 19)(= b19 8))(and (= b8 20)(= b20 8))))
(assert-soft (or (and (= b9 1)(= b1 9))(and (= b9 2)(= b2 9))(and (= b9 3)(= b3 9))(and (= b9 4)(= b4 9))(and (= b9 5)(= b5 9))(and (= b9 6)(= b6 9))(and (= b9 7)(= b7 9))(and (= b9 8)(= b8 9))(and (= b9 10)(= b10 9))(and (= b9 11)(= b11 9))(and (= b9 12)(= b12 9))(and (= b9 13)(= b13 9))(and (= b9 14)(= b14 9))(and (= b9 15)(= b15 9))(and (= b9 16)(= b16 9))(and (= b9 17)(= b17 9))(and (= b9 18)(= b18 9))(and (= b9 19)(= b19 9))(and (= b9 20)(= b20 9))))
(assert-soft (or (and (= b10 1)(= b1 10))(and (= b10 2)(= b2 10))(and (= b10 3)(= b3 10))(and (= b10 4)(= b4 10))(and (= b10 5)(= b5 10))(and (= b10 6)(= b6 10))(and (= b10 7)(= b7 10))(and (= b10 8)(= b8 10))(and (= b10 9)(= b9 10))(and (= b10 11)(= b11 10))(and (= b10 12)(= b12 10))(and (= b10 13)(= b13 10))(and (= b10 14)(= b14 10))(and (= b10 15)(= b15 10))(and (= b10 16)(= b16 10))(and (= b10 17)(= b17 10))(and (= b10 18)(= b18 10))(and (= b10 19)(= b19 10))(and (= b10 20)(= b20 10))))
(assert-soft (or (and (= b11 1)(= b1 11))(and (= b11 2)(= b2 11))(and (= b11 3)(= b3 11))(and (= b11 4)(= b4 11))(and (= b11 5)(= b5 11))(and (= b11 6)(= b6 11))(and (= b11 7)(= b7 11))(and (= b11 8)(= b8 11))(and (= b11 9)(= b9 11))(and (= b11 10)(= b10 11))(and (= b11 12)(= b12 11))(and (= b11 13)(= b13 11))(and (= b11 14)(= b14 11))(and (= b11 15)(= b15 11))(and (= b11 16)(= b16 11))(and (= b11 17)(= b17 11))(and (= b11 18)(= b18 11))(and (= b11 19)(= b19 11))(and (= b11 20)(= b20 11))))
(assert-soft (or (and (= b12 1)(= b1 12))(and (= b12 2)(= b2 12))(and (= b12 3)(= b3 12))(and (= b12 4)(= b4 12))(and (= b12 5)(= b5 12))(and (= b12 6)(= b6 12))(and (= b12 7)(= b7 12))(and (= b12 8)(= b8 12))(and (= b12 9)(= b9 12))(and (= b12 10)(= b10 12))(and (= b12 11)(= b11 12))(and (= b12 13)(= b13 12))(and (= b12 14)(= b14 12))(and (= b12 15)(= b15 12))(and (= b12 16)(= b16 12))(and (= b12 17)(= b17 12))(and (= b12 18)(= b18 12))(and (= b12 19)(= b19 12))(and (= b12 20)(= b20 12))))
(assert-soft (or (and (= b13 1)(= b1 13))(and (= b13 2)(= b2 13))(and (= b13 3)(= b3 13))(and (= b13 4)(= b4 13))(and (= b13 5)(= b5 13))(and (= b13 6)(= b6 13))(and (= b13 7)(= b7 13))(and (= b13 8)(= b8 13))(and (= b13 9)(= b9 13))(and (= b13 10)(= b10 13))(and (= b13 11)(= b11 13))(and (= b13 12)(= b12 13))(and (= b13 14)(= b14 13))(and (= b13 15)(= b15 13))(and (= b13 16)(= b16 13))(and (= b13 17)(= b17 13))(and (= b13 18)(= b18 13))(and (= b13 19)(= b19 13))(and (= b13 20)(= b20 13))))
(assert-soft (or (and (= b14 1)(= b1 14))(and (= b14 2)(= b2 14))(and (= b14 3)(= b3 14))(and (= b14 4)(= b4 14))(and (= b14 5)(= b5 14))(and (= b14 6)(= b6 14))(and (= b14 7)(= b7 14))(and (= b14 8)(= b8 14))(and (= b14 9)(= b9 14))(and (= b14 10)(= b10 14))(and (= b14 11)(= b11 14))(and (= b14 12)(= b12 14))(and (= b14 13)(= b13 14))(and (= b14 15)(= b15 14))(and (= b14 16)(= b16 14))(and (= b14 17)(= b17 14))(and (= b14 18)(= b18 14))(and (= b14 19)(= b19 14))(and (= b14 20)(= b20 14))))
(assert-soft (or (and (= b15 1)(= b1 15))(and (= b15 2)(= b2 15))(and (= b15 3)(= b3 15))(and (= b15 4)(= b4 15))(and (= b15 5)(= b5 15))(and (= b15 6)(= b6 15))(and (= b15 7)(= b7 15))(and (= b15 8)(= b8 15))(and (= b15 9)(= b9 15))(and (= b15 10)(= b10 15))(and (= b15 11)(= b11 15))(and (= b15 12)(= b12 15))(and (= b15 13)(= b13 15))(and (= b15 14)(= b14 15))(and (= b15 16)(= b16 15))(and (= b15 17)(= b17 15))(and (= b15 18)(= b18 15))(and (= b15 19)(= b19 15))(and (= b15 20)(= b20 15))))
(assert-soft (or (and (= b16 1)(= b1 16))(and (= b16 2)(= b2 16))(and (= b16 3)(= b3 16))(and (= b16 4)(= b4 16))(and (= b16 5)(= b5 16))(and (= b16 6)(= b6 16))(and (= b16 7)(= b7 16))(and (= b16 8)(= b8 16))(and (= b16 9)(= b9 16))(and (= b16 10)(= b10 16))(and (= b16 11)(= b11 16))(and (= b16 12)(= b12 16))(and (= b16 13)(= b13 16))(and (= b16 14)(= b14 16))(and (= b16 15)(= b15 16))(and (= b16 17)(= b17 16))(and (= b16 18)(= b18 16))(and (= b16 19)(= b19 16))(and (= b16 20)(= b20 16))))
(assert-soft (or (and (= b17 1)(= b1 17))(and (= b17 2)(= b2 17))(and (= b17 3)(= b3 17))(and (= b17 4)(= b4 17))(and (= b17 5)(= b5 17))(and (= b17 6)(= b6 17))(and (= b17 7)(= b7 17))(and (= b17 8)(= b8 17))(and (= b17 9)(= b9 17))(and (= b17 10)(= b10 17))(and (= b17 11)(= b11 17))(and (= b17 12)(= b12 17))(and (= b17 13)(= b13 17))(and (= b17 14)(= b14 17))(and (= b17 15)(= b15 17))(and (= b17 16)(= b16 17))(and (= b17 18)(= b18 17))(and (= b17 19)(= b19 17))(and (= b17 20)(= b20 17))))
(assert-soft (or (and (= b18 1)(= b1 18))(and (= b18 2)(= b2 18))(and (= b18 3)(= b3 18))(and (= b18 4)(= b4 18))(and (= b18 5)(= b5 18))(and (= b18 6)(= b6 18))(and (= b18 7)(= b7 18))(and (= b18 8)(= b8 18))(and (= b18 9)(= b9 18))(and (= b18 10)(= b10 18))(and (= b18 11)(= b11 18))(and (= b18 12)(= b12 18))(and (= b18 13)(= b13 18))(and (= b18 14)(= b14 18))(and (= b18 15)(= b15 18))(and (= b18 16)(= b16 18))(and (= b18 17)(= b17 18))(and (= b18 19)(= b19 18))(and (= b18 20)(= b20 18))))
(assert-soft (or (and (= b19 1)(= b1 19))(and (= b19 2)(= b2 19))(and (= b19 3)(= b3 19))(and (= b19 4)(= b4 19))(and (= b19 5)(= b5 19))(and (= b19 6)(= b6 19))(and (= b19 7)(= b7 19))(and (= b19 8)(= b8 19))(and (= b19 9)(= b9 19))(and (= b19 10)(= b10 19))(and (= b19 11)(= b11 19))(and (= b19 12)(= b12 19))(and (= b19 13)(= b13 19))(and (= b19 14)(= b14 19))(and (= b19 15)(= b15 19))(and (= b19 16)(= b16 19))(and (= b19 17)(= b17 19))(and (= b19 18)(= b18 19))(and (= b19 20)(= b20 19))))
(assert-soft (or (and (= b20 1)(= b1 20))(and (= b20 2)(= b2 20))(and (= b20 3)(= b3 20))(and (= b20 4)(= b4 20))(and (= b20 5)(= b5 20))(and (= b20 6)(= b6 20))(and (= b20 7)(= b7 20))(and (= b20 8)(= b8 20))(and (= b20 9)(= b9 20))(and (= b20 10)(= b10 20))(and (= b20 11)(= b11 20))(and (= b20 12)(= b12 20))(and (= b20 13)(= b13 20))(and (= b20 14)(= b14 20))(and (= b20 15)(= b15 20))(and (= b20 16)(= b16 20))(and (= b20 17)(= b17 20))(and (= b20 18)(= b18 20))(and (= b20 19)(= b19 20))))

(check-sat)
(get-model)
